NAME : lr104.1013386.tour
COMMENT : Cost = 0_1013386
COMMENT : Found by LKH [Keld Helsgaun] Fri Sep 15 17:42:01 2017
TYPE : TOUR
DIMENSION : 113
TOUR_SECTION
1
13
81
69
25
30
80
79
35
82
34
78
4
109
19
83
49
47
9
48
37
50
20
8
107
22
76
57
24
68
40
56
5
26
55
106
43
44
16
58
88
3
74
73
75
23
104
42
108
7
95
97
60
94
102
100
85
18
46
84
6
61
90
113
53
89
63
12
65
64
91
33
11
32
28
105
112
29
2
70
77
54
27
41
103
14
96
98
59
110
93
99
15
45
39
87
17
62
86
92
101
38
111
71
31
21
67
10
36
66
72
52
51
-1
EOF
